
Gurobi 10.0.1 (linux64) logging started Sun Nov 26 15:43:51 2023

Set parameter LogFile to value "ArtificialInstance/ExperimentV2/S2T3K3/AdRo/gurobiSpRo33.txt"
Gurobi Optimizer version 10.0.1 build v10.0.1rc0 (linux64)

CPU model: AMD EPYC 7H12 64-Core Processor, instruction set [SSE2|AVX|AVX2]
Thread count: 128 physical cores, 128 logical processors, using up to 32 threads

Academic license 656792 - for non-commercial use only - registered to b.___@student.vu.nl
Optimize a model with 9692 rows, 9379 columns and 36192 nonzeros
Model fingerprint: 0xf4e5345f
Variable types: 1 continuous, 9378 integer (9378 binary)
Coefficient statistics:
  Matrix range     [1e+00, 4e+01]
  Objective range  [1e+00, 2e+01]
  Bounds range     [1e+00, 1e+00]
  RHS range        [1e+00, 1e+00]
Presolve removed 4844 rows and 4689 columns
Presolve time: 0.12s
Presolved: 4848 rows, 4690 columns, 18076 nonzeros
Variable types: 1 continuous, 4689 integer (4689 binary)
Found heuristic solution: objective 95.7322710

Root relaxation: objective 7.762554e+01, 1479 iterations, 0.05 seconds (0.03 work units)

    Nodes    |    Current Node    |     Objective Bounds      |     Work
 Expl Unexpl |  Obj  Depth IntInf | Incumbent    BestBd   Gap | It/Node Time

     0     0   77.62554    0   53   95.73227   77.62554  18.9%     -    0s
H    0     0                      77.6255411   77.62554  0.00%     -    0s
     0     0   77.62554    0   53   77.62554   77.62554  0.00%     -    0s

Explored 1 nodes (2329 simplex iterations) in 0.24 seconds (0.16 work units)
Thread count was 32 (of 128 available processors)

Solution count 2: 77.6255 95.7323 

Optimal solution found (tolerance 1.00e-04)
Best objective 7.762554112420e+01, best bound 7.762554112420e+01, gap 0.0000%
